0 9099.83
1 9099.83
2 9052.44
3 9052.44
4 8828.04
5 8813.13
6 8754.91
7 8695.91
8 8695.91
9 8568.35
10 8529.99
11 8516.41
12 8373.02
13 8366.73
14 8366.73
15 8354.54
16 8354.54
17 8302.96
18 8302.96
19 8302.96
20 8270.93
21 8188.16
22 8157.46
23 8157.46
24 8116.79
25 8116.79
26 8116.79
27 8116.79
28 8116.79
29 8116.79
30 8116.79
31 8116.79
32 8116.79
33 8078.57
34 8078.57
35 8078.57
36 8078.57
37 7950.22
38 7947.63
39 7947.63
40 7947.63
41 7947.63
42 7947.63
43 7947.63
44 7947.63
45 7947.63
46 7947.63
47 7923.61
48 7923.61
49 7883.78
50 7857.71
51 7857.71
52 7830.13
53 7830.13
54 7792.93
55 7792.93
56 7792.88
57 7792.88
58 7792.88
59 7775.01
60 7764.08
61 7764.08
62 7764.08
63 7764.08
64 7754.94
65 7754.94
66 7749.97
67 7749.97
68 7749.97
69 7742.24
70 7710.06
71 7710.06
72 7710.06
73 7710.06
74 7704.85
75 7620.17
76 7620.17
77 7620.17
78 7620.17
79 7620.17
80 7620.17
81 7620.17
82 7620.17
83 7620.17
84 7620.17
85 7620.17
86 7590.67
87 7590.67
88 7590.67
89 7590.67
90 7557.69
91 7557.69
92 7557.69
93 7557.69
94 7557.69
95 7557.69
96 7549.37
97 7547.71
98 7536.08
99 7536.08
100 7536.08
101 7536.08
102 7530.71
103 7530.71
104 7530.71
105 7524.73
106 7471.14
107 7471.14
108 7471.14
109 7471.14
110 7471.14
111 7471.14
112 7471.14
113 7461.58
114 7429.20
115 7429.20
116 7429.20
117 7408.95
118 7374.39
119 7374.39
120 7374.39
121 7374.39
122 7374.39
123 7374.39
124 7374.39
125 7374.39
126 7374.39
127 7332.83
128 7332.83
129 7332.83
130 7329.75
131 7329.75
132 7329.75
133 7329.75
134 7329.75
135 7329.75
136 7329.75
137 7329.75
138 7329.75
139 7329.75
140 7329.75
141 7329.75
142 7304.07
143 7304.07
144 7304.07
145 7303.39
146 7303.39
147 7303.39
148 7303.39
149 7303.39
150 7275.89
151 7275.89
152 7275.89
153 7275.89
154 7275.89
155 7275.89
156 7275.89
157 7275.89
158 7275.89
159 7275.89
160 7258.23
161 7258.23
162 7258.23
163 7247.32
164 7247.32
165 7247.32
166 7247.32
167 7237.02
168 7226.01
169 7226.01
170 7226.01
171 7226.01
172 7226.01
173 7226.01
174 7226.01
175 7226.01
176 7226.01
177 7226.01
178 7226.01
179 7226.01
180 7147.42
181 7147.42
182 7147.42
183 7147.42
184 7147.42
185 7147.42
186 7147.42
187 7147.42
188 7147.42
189 7147.42
190 7147.42
191 7056.78
192 7056.78
193 7056.78
194 7056.78
195 7056.78
196 7056.78
197 7056.78
198 7056.78
199 7056.78
200 7056.78
201 7056.78
202 7056.78
203 7056.78
204 7056.78
205 7056.78
206 5301.61
207 5301.61
208 5301.61
209 5301.61
210 5301.61
211 5301.61
212 5301.61
213 5301.61
214 5301.61
215 5301.61
216 5301.61
217 5301.61
218 5301.61
219 5301.61
220 5301.61
221 5301.61
222 5301.61
223 5301.61
224 5301.61
225 5301.61
226 5301.61
227 5301.61
228 5301.61
229 5301.61
230 5301.61
231 5301.61
232 5301.61
233 5301.61
234 5301.61
235 5301.61
236 5301.61
237 5301.61
238 5301.61
239 5301.61
240 5301.61
241 5301.61
242 5301.61
243 5301.61
244 5301.61
245 5301.61
246 5301.61
247 5301.61
248 5301.61
249 5301.61
250 5301.61
251 5301.61
252 5301.61
253 5301.61
254 5301.61
255 5301.61
256 5301.61
257 5301.61
258 5301.61
259 5301.61
260 5301.61
261 5301.61
262 5301.61
263 5301.61
264 5301.61
265 5301.61
266 5301.61
267 5301.61
268 5301.61
269 5301.61
270 5301.61
271 5301.61
272 5301.61
273 5301.61
274 5301.61
275 5301.61
276 5301.61
277 5301.61
278 5301.61
279 5301.61
280 5301.61
281 5301.61
282 5301.61
283 5301.61
284 5301.61
285 5301.61
286 5301.61
287 5301.61
288 5301.61
289 5301.61
290 5301.61
291 5301.61
292 5301.61
293 5301.61
294 5301.61
295 5301.61
296 5301.61
297 5301.61
298 5301.61
299 5301.61
300 5301.61
301 5301.61
302 5301.61
303 5301.61
304 5301.61
305 5301.61
306 5301.61
307 5301.61
308 5301.61
309 5301.61
310 5301.61
311 5301.61
312 5301.61
313 5301.61
314 5301.61
315 5301.61
316 5301.61
317 5301.61
318 5301.61
319 5301.61
320 5301.61
321 5301.61
322 5301.61
323 5301.61
324 5301.61
325 5301.61
326 5301.61
327 5301.61
328 5301.61
329 5301.61
330 5301.61
331 5301.61
332 5301.61
333 5301.61
334 5301.61
335 5301.61
336 5301.61
337 5301.61
338 5301.61
339 5301.61
340 5301.61
341 5301.61
342 5301.61
343 5301.61
344 5301.61
345 5301.61
346 5301.61
347 5301.61
348 5301.61
349 5301.61
350 5301.61
351 5301.61
352 5301.61
353 5301.61
354 5301.61
355 5301.61
356 5301.61
357 5301.61
358 5301.61
359 5301.61
360 5301.61
361 5301.61
362 5301.61
363 5301.61
364 5301.61
365 5301.61
366 5301.61
367 5301.61
368 5301.61
369 5301.61
370 5301.61
371 5301.61
372 5301.61
373 5301.61
374 5301.61
375 5301.61
376 5301.61
377 5301.61
378 5301.61
379 5301.61
380 5301.61
381 5301.61
382 5301.61
383 5301.61
384 5301.61
385 5301.61
386 5301.61
387 5301.61
388 5301.61
389 5301.61
390 5301.61
391 5301.61
392 5301.61
393 5301.61
394 5301.61
395 5301.61
396 5301.61
397 5301.61
398 5301.61
399 5301.61
400 5301.61
401 5301.61
402 5301.61
403 5301.61
404 5301.61
405 5301.61
406 5301.61
407 5301.61
408 5301.61
409 5301.61
410 5301.61
411 5301.61
412 5301.61
413 5301.61
414 5301.61
415 5301.61
416 5301.61
417 5301.61
418 5301.61
419 5301.61
420 5301.61
421 5301.61
422 5301.61
423 5301.61
424 5301.61
425 5301.61
426 5301.61
427 5301.61
428 5301.61
429 5301.61
430 5301.61
431 5301.61
432 5301.61
433 5301.61
434 5301.61
435 5301.61
436 5301.61
437 5301.61
438 5301.61
439 5301.61
440 5301.61
441 5301.61
442 5301.61
443 5301.61
444 5301.61
445 5301.61
446 5301.61
447 5301.61
448 5301.61
449 5301.61
450 5301.61
451 5301.61
452 5301.61
453 5301.61
454 5301.61
455 5301.61
456 5301.61
457 5301.61
458 5301.61
459 5301.61
460 5301.61
461 5301.61
462 5301.61
463 5301.61
464 5301.61
465 5301.61
466 5301.61
467 5301.61
468 5301.61
469 5301.61
470 5301.61
471 5301.61
472 5301.61
473 5301.61
474 5301.61
475 5301.61
476 5301.61
477 5301.61
478 5301.61
479 5301.61
480 5301.61
481 5301.61
482 5301.61
483 5301.61
484 5301.61
485 5301.61
486 5301.61
487 5301.61
488 5301.61
489 5301.61
490 5301.61
491 5301.61
492 5301.61
493 5301.61
494 5301.61
495 5301.61
496 5301.61
497 5301.61
498 5301.61
499 5301.61
500 5301.61
501 5301.61
502 5301.61
503 5301.61
504 5301.61
505 5301.61
506 5301.61
507 5301.61
508 5301.61
509 5301.61
510 5301.61
511 5301.61
512 5301.61
513 5301.61
514 5301.61
515 5301.61
516 5301.61
517 5301.61
518 5301.61
519 5301.61
520 5301.61
521 5301.61
522 5301.61
523 5301.61
524 5301.61
525 5301.61
526 5301.61
527 5301.61
528 5301.61
529 5301.61
530 5301.61
531 5301.61
532 5301.61
533 5301.61
534 5301.61
535 5301.61
536 5301.61
537 5301.61
538 5301.61
539 5301.61
540 5301.61
541 5301.61
542 5301.61
543 5301.61
544 5301.61
545 5301.61
546 5301.61
547 5301.61
548 5301.61
549 5301.61
550 5301.61
551 5301.61
552 5301.61
553 5301.61
554 5301.61
555 5301.61
556 5301.61
557 5301.61
558 5301.61
559 5301.61
560 5301.61
561 5301.61
562 5301.61
563 5301.61
564 5301.61
565 5301.61
566 5301.61
567 5301.61
568 5301.61
569 5301.61
570 5301.61
571 5301.61
572 5301.61
573 5301.61
574 5301.61
575 5301.61
576 5301.61
577 5301.61
578 5301.61
579 5301.61
580 5301.61
581 5301.61
582 5301.61
583 5301.61
584 5301.61
585 5301.61
586 5301.61
587 5301.61
588 5301.61
589 5301.61
590 5301.61
591 5301.61
592 5301.61
593 5301.61
594 5301.61
595 5301.61
596 5301.61
597 5301.61
598 5301.61
599 5301.61
600 5301.61
601 5301.61
602 5301.61
603 5301.61
604 5301.61
605 5301.61
606 5301.61
607 5301.61
608 5301.61
609 5301.61
610 5301.61
611 5301.61
612 5301.61
613 5301.61
614 5301.61
615 5301.61
616 5301.61
617 5301.61
618 5301.61
619 5301.61
620 5301.61
621 5301.61
622 5301.61
623 5301.61
624 5301.61
625 5301.61
626 5301.61
627 5301.61
628 5301.61
629 5301.61
630 5301.61
631 5301.61
632 5301.61
633 5301.61
634 5301.61
635 5301.61
636 5301.61
637 5301.61
638 5301.61
639 5301.61
640 5301.61
641 5301.61
642 5301.61
643 5301.61
644 5301.61
645 5301.61
646 5301.61
647 5301.61
648 5301.61
649 5301.61
650 5301.61
651 5301.61
652 5301.61
653 5301.61
654 5301.61
655 5301.61
656 5301.61
657 5301.61
658 5301.61
659 5301.61
660 5301.61
661 5301.61
662 5301.61
663 5301.61
664 5301.61
665 5301.61
666 5301.61
667 5301.61
668 5301.61
669 5301.61
670 5301.61
671 5301.61
672 5301.61
673 5301.61
674 5301.61
675 5301.61
676 5301.61
677 5301.61
678 5301.61
679 5301.61
680 5301.61
681 5301.61
682 5301.61
683 5301.61
684 5301.61
685 5301.61
686 5301.61
687 5301.61
688 5301.61
689 5301.61
690 5301.61
691 5301.61
692 5301.61
693 5301.61
694 5301.61
695 5301.61
696 5301.61
697 5301.61
698 5301.61
699 5301.61
700 5301.61
701 5301.61
702 5301.61
703 5301.61
704 5301.61
705 5301.61
706 5301.61
707 5301.61
708 5301.61
709 5301.61
710 5301.61
711 5301.61
712 5301.61
713 5301.61
714 5301.61
715 5301.61
716 5301.61
717 5301.61
718 5301.61
719 5301.61
720 5301.61
721 5301.61
722 5301.61
723 5301.61
724 5301.61
725 5301.61
726 5301.61
727 5301.61
728 5301.61
729 5301.61
730 5301.61
731 5301.61
732 5301.61
733 5301.61
734 5301.61
735 5301.61
736 5301.61
737 5301.61
738 5301.61
739 5301.61
740 5301.61
741 5301.61
742 5301.61
743 5301.61
744 5301.61
745 5301.61
746 5301.61
747 5301.61
748 5301.61
749 5301.61
750 5301.61
751 5301.61
752 5301.61
753 5301.61
754 5301.61
755 5301.61
756 5301.61
757 5301.61
758 5301.61
759 5301.61
760 5301.61
761 5301.61
762 5301.61
763 5301.61
764 5301.61
765 5301.61
766 5301.61
767 5301.61
768 5301.61
769 5301.61
770 5301.61
771 5301.61
772 5301.61
773 5301.61
774 5301.61
775 5301.61
776 5301.61
777 5301.61
778 5301.61
779 5301.61
780 5301.61
781 5301.61
782 5301.61
783 5301.61
784 5301.61
785 5301.61
786 5301.61
787 5301.61
788 5301.61
789 5301.61
790 5301.61
791 5301.61
792 5301.61
793 5301.61
794 5301.61
795 5301.61
796 5301.61
797 5301.61
798 5301.61
799 5301.61
800 5301.61
801 5301.61
802 5301.61
803 5301.61
804 5301.61
805 5301.61
806 5301.61
807 5301.61
808 5301.61
809 5301.61
810 5301.61
811 5301.61
812 5301.61
813 5301.61
814 5301.61
815 5301.61
816 5301.61
817 5301.61
818 5301.61
819 5301.61
820 5301.61
821 5301.61
822 5301.61
823 5301.61
824 5301.61
825 5301.61
826 5301.61
827 5301.61
828 5301.61
829 5301.61
830 5301.61
831 5301.61
832 5301.61
833 5301.61
834 5301.61
835 5301.61
836 5301.61
837 5301.61
838 5301.61
839 5301.61
840 5301.61
841 5301.61
842 5301.61
843 5301.61
844 5301.61
845 5301.61
846 5301.61
847 5301.61
848 5301.61
849 5301.61
850 5301.61
851 5301.61
852 5301.61
853 5301.61
854 5301.61
855 5301.61
856 5301.61
857 5301.61
858 5301.61
859 5301.61
860 5301.61
861 5301.61
862 5301.61
863 5301.61
864 5301.61
865 5301.61
866 5301.61
867 5301.61
868 5301.61
869 5301.61
870 5301.61
871 5301.61
872 5301.61
873 5301.61
874 5301.61
875 5301.61
876 5301.61
877 5301.61
878 5301.61
879 5301.61
880 5301.61
881 5301.61
882 5301.61
883 5301.61
884 5301.61
885 5301.61
886 5301.61
887 5301.61
888 5301.61
889 5301.61
890 5301.61
891 5301.61
892 5301.61
893 5301.61
894 5301.61
895 5301.61
896 5301.61
897 5301.61
898 5301.61
899 5301.61
900 5301.61
901 5301.61
902 5301.61
903 5301.61
904 5301.61
905 5301.61
906 5301.61
907 5301.61
908 5301.61
909 5301.61
910 5301.61
911 5301.61
912 5301.61
913 5301.61
914 5301.61
915 5301.61
916 5301.61
917 5301.61
918 5301.61
919 5301.61
920 5301.61
921 5301.61
922 5301.61
923 5301.61
924 5301.61
925 5301.61
926 5301.61
927 5301.61
928 5301.61
929 5301.61
930 5301.61
931 5301.61
932 5301.61
933 5301.61
934 5301.61
935 5301.61
936 5301.61
937 5301.61
938 5301.61
939 5301.61
940 5301.61
941 5301.61
942 5301.61
943 5301.61
944 5301.61
945 5301.61
946 5301.61
947 5301.61
948 5301.61
949 5301.61
950 5301.61
951 5301.61
952 5301.61
953 5301.61
954 5301.61
955 5301.61
956 5301.61
957 5301.61
958 5301.61
959 5301.61
960 5301.61
961 5301.61
962 5301.61
963 5301.61
964 5301.61
965 5301.61
966 5301.61
967 5301.61
968 5301.61
969 5301.61
970 5301.61
971 5301.61
972 5301.61
973 5301.61
974 5301.61
975 5301.61
976 5301.61
977 5301.61
978 5301.61
979 5301.61
980 5301.61
981 5301.61
982 5301.61
983 5301.61
984 5301.61
985 5301.61
986 5301.61
987 5301.61
988 5301.61
989 5301.61
990 5301.61
991 5301.61
992 5301.61
993 5301.61
994 5301.61
995 5301.61
996 5301.61
997 5301.61
998 5301.61
999 5301.61
8 11 2 3 0 0 